virial_stress_von_mises
3.621663e+01 1.484170e+01 2.140124e+01 2.929839e+01 1.537607e+02 1.305906e+02 1.331858e+02 3.230289e+02 1.258800e+02 3.409878e+02 4.099126e+01 2.051196e+01 1.647404e+01 1.444260e+01 1.996434e+02 1.273238e+02 1.307893e+02 3.746460e+02 1.062939e+02 3.914750e+02 5.002916e+01 1.693717e+01 2.688347e+01 7.950644e+00 2.071992e+02 1.304928e+02 1.257891e+02 3.498816e+02 8.953011e+01 3.706359e+02
8.872687e+01 4.441654e+01 5.028633e+01 1.544907e+01 2.858829e+02 2.195174e+02 2.435186e+02 5.994608e+02 2.259916e+02 6.415613e+02 1.225824e+02 6.231802e+01 4.119380e+01 8.807088e+01 3.532382e+02 2.386556e+02 1.908626e+02 6.808530e+02 1.894932e+02 7.171833e+02 1.188365e+02 4.152789e+01 6.474409e+01 2.565142e+01 3.636306e+02 1.918501e+02 2.558286e+02 6.381838e+02 1.417352e+02 6.763955e+02
2.053194e+02 8.650725e+01 6.900571e+01 1.145202e+02 3.615093e+02 2.367023e+02 2.979868e+02 7.984485e+02 2.860606e+02 8.684282e+02 2.275550e+02 1.120332e+02 7.768585e+01 1.863577e+02 4.365633e+02 3.011244e+02 1.555805e+02 8.888806e+02 2.405395e+02 9.474263e+02 2.218731e+02 7.729725e+01 9.875723e+01 1.079488e+02 4.482265e+02 1.593070e+02 3.530710e+02 8.384115e+02 1.508796e+02 8.883221e+02
3.373826e+02 1.330107e+02 7.189040e+01 2.356885e+02 3.680200e+02 1.730365e+02 2.754460e+02 9.023069e+02 2.962372e+02 9.987278e+02 3.211896e+02 1.549034e+02 1.237477e+02 2.697747e+02 4.508075e+02 2.913542e+02 4.712642e+01 9.828347e+02 2.575924e+02 1.064058e+03 3.580015e+02 1.232601e+02 1.173809e+02 2.301830e+02 4.636561e+02 4.436060e+01 3.850689e+02 9.401775e+02 1.314095e+02 9.894164e+02
4.322839e+02 1.729165e+02 9.312730e+01 3.308129e+02 3.340396e+02 9.983516e+01 1.812367e+02 9.114637e+02 2.585767e+02 1.022951e+03 3.757269e+02 1.794421e+02 1.738839e+02 3.040427e+02 4.259163e+02 2.072595e+02 1.810329e+02 9.648771e+02 2.534880e+02 1.063253e+03 5.052220e+02 1.740434e+02 1.202601e+02 3.663641e+02 4.363420e+02 1.611354e+02 3.337459e+02 9.523815e+02 1.569171e+02 9.766030e+02
4.657224e+02 1.964445e+02 1.668406e+02 3.680591e+02 3.241781e+02 2.191767e+02 9.510854e+01 8.483594e+02 2.113053e+02 9.446399e+02 3.834321e+02 1.814944e+02 2.210842e+02 2.730243e+02 4.022503e+02 8.983612e+01 3.685673e+02 8.579630e+02 2.648882e+02 9.553851e+02 6.354399e+02 2.217942e+02 1.252158e+02 4.850215e+02 3.988291e+02 3.442950e+02 2.074064e+02 9.019430e+02 2.803489e+02 8.593379e+02
4.578138e+02 1.992194e+02 2.655946e+02 3.458754e+02 3.638814e+02 3.756742e+02 1.870053e+02 7.634769e+02 2.637351e+02 7.781786e+02 3.684367e+02 1.665676e+02 2.587800e+02 1.973517e+02 4.019586e+02 1.307219e+02 4.973871e+02 7.142383e+02 3.337285e+02 7.655472e+02 7.311501e+02 2.592357e+02 1.543763e+02 5.635131e+02 3.699846e+02 4.705353e+02 6.142726e+01 8.281899e+02 4.545833e+02 6.569368e+02
4.635145e+02 1.858085e+02 3.577652e+02 2.954903e+02 4.182192e+02 4.757371e+02 2.898121e+02 7.360443e+02 4.372107e+02 5.484152e+02 3.730880e+02 1.493248e+02 2.835737e+02 1.600885e+02 4.336631e+02 2.378432e+02 5.354429e+02 6.348018e+02 4.573383e+02 5.456159e+02 7.940146e+02 2.831984e+02 2.023133e+02 5.986047e+02 3.518875e+02 5.081667e+02 1.390486e+02 7.713430e+02 6.374156e+02 3.992690e+02
5.201578e+02 1.673228e+02 4.258565e+02 2.646664e+02 4.916087e+02 4.966602e+02 3.249208e+02 8.237273e+02 6.565866e+02 2.828775e+02 4.015812e+02 1.449414e+02 2.965483e+02 2.065893e+02 5.198362e+02 2.846014e+02 4.855284e+02 7.254614e+02 6.043361e+02 4.144192e+02 8.382168e+02 2.956936e+02 2.519779e+02 6.037539e+02 3.345779e+02 4.580052e+02 2.322123e+02 7.497853e+02 7.963575e+02 1.398855e+02
6.146254e+02 1.561304e+02 4.684080e+02 2.819688e+02 6.356703e+02 4.519789e+02 2.903656e+02 1.003873e+03 8.740916e+02 5.785781e+01 4.210902e+02 1.584279e+02 3.038732e+02 2.466362e+02 6.846642e+02 2.597519e+02 3.798428e+02 9.644171e+02 7.472028e+02 5.273696e+02 8.822927e+02 3.033929e+02 2.972407e+02 6.037882e+02 3.211547e+02 3.472969e+02 2.460561e+02 7.539109e+02 9.036438e+02 2.351990e+02
7.162386e+02 1.576111e+02 4.967018e+02 3.307573e+02 8.604705e+02 3.818675e+02 2.254298e+02 1.212100e+03 1.057829e+03 2.679561e+02 4.174779e+02 1.850647e+02 3.143028e+02 2.390739e+02 9.184558e+02 1.900071e+02 2.705750e+02 1.262200e+03 8.683697e+02 7.847685e+02 9.400054e+02 3.138221e+02 3.415125e+02 6.249227e+02 3.348103e+02 2.181675e+02 1.865639e+02 7.603619e+02 9.383860e+02 4.954835e+02
